p cnf 430 1488
-191 148 0
-191 -38 0
-191 59 0
-191 -142 0
-191 -54 0
191 -148 38 -59 142 54 0
-192 160 0
-192 -21 0
-192 81 0
-192 145 0
-192 49 0
192 -160 21 -81 -145 -49 0
-193 -133 0
-193 -173 0
-193 -97 0
-193 122 0
-193 59 0
193 133 173 97 -122 -59 0
-194 -167 0
-194 -108 0
-194 169 0
-194 -90 0
-194 83 0
194 167 108 -169 90 -83 0
-195 67 0
-195 26 0
-195 93 0
-195 94 0
-195 189 0
195 -67 -26 -93 -94 -189 0
191 192 193 194 195 0
-196 -184 0
-196 140 0
-196 19 0
-196 -158 0
-196 -169 0
196 184 -140 -19 158 169 0
-197 84 0
-197 -94 0
-197 182 0
-197 17 0
-197 -82 0
197 -84 94 -182 -17 82 0
-198 -130 0
-198 -44 0
-198 173 0
-198 -50 0
-198 6 0
198 130 44 -173 50 -6 0
-199 -170 0
-199 -161 0
-199 133 0
-199 -42 0
-199 -20 0
199 170 161 -133 42 20 0
-200 -109 0
-200 -122 0
-200 -2 0
-200 -106 0
-200 69 0
200 109 122 2 106 -69 0
196 197 198 199 200 0
-201 -54 0
-201 27 0
-201 -157 0
-201 -180 0
-201 -146 0
201 54 -27 157 180 146 0
-202 170 0
-202 -179 0
-202 -137 0
-202 73 0
-202 -41 0
202 -170 179 137 -73 41 0
-203 183 0
-203 169 0
-203 64 0
-203 130 0
-203 150 0
203 -183 -169 -64 -130 -150 0
-204 -86 0
-204 78 0
-204 188 0
-204 143 0
-204 -184 0
204 86 -78 -188 -143 184 0
-205 -28 0
-205 -124 0
-205 -101 0
-205 171 0
-205 -22 0
205 28 124 101 -171 22 0
201 202 203 204 205 0
-206 119 0
-206 -118 0
-206 188 0
-206 -141 0
-206 -107 0
206 -119 118 -188 141 107 0
-207 62 0
-207 168 0
-207 -4 0
-207 -83 0
-207 114 0
207 -62 -168 4 83 -114 0
-208 -30 0
-208 121 0
-208 -21 0
-208 145 0
-208 38 0
208 30 -121 21 -145 -38 0
-209 142 0
-209 -88 0
-209 22 0
-209 16 0
-209 101 0
209 -142 88 -22 -16 -101 0
-210 107 0
-210 141 0
-210 -47 0
-210 -10 0
-210 -61 0
210 -107 -141 47 10 61 0
206 207 208 209 210 0
-211 11 0
-211 -148 0
-211 -141 0
-211 103 0
-211 43 0
211 -11 148 141 -103 -43 0
-212 -10 0
-212 32 0
-212 -118 0
-212 -99 0
-212 148 0
212 10 -32 118 99 -148 0
-213 -82 0
-213 1 0
-213 39 0
-213 177 0
-213 -57 0
213 82 -1 -39 -177 57 0
-214 -70 0
-214 56 0
-214 65 0
-214 185 0
-214 -55 0
214 70 -56 -65 -185 55 0
-215 -157 0
-215 133 0
-215 12 0
-215 177 0
-215 -166 0
215 157 -133 -12 -177 166 0
211 212 213 214 215 0
-216 -147 0
-216 -11 0
-216 42 0
-216 178 0
-216 -107 0
216 147 11 -42 -178 107 0
-217 -16 0
-217 -115 0
-217 104 0
-217 -13 0
-217 170 0
217 16 115 -104 13 -170 0
-218 118 0
-218 167 0
-218 173 0
-218 146 0
-218 97 0
218 -118 -167 -173 -146 -97 0
-219 -13 0
-219 17 0
-219 11 0
-219 50 0
-219 121 0
219 13 -17 -11 -50 -121 0
-220 -163 0
-220 153 0
-220 -40 0
-220 -74 0
-220 -139 0
220 163 -153 40 74 139 0
216 217 218 219 220 0
-221 -153 0
-221 -20 0
-221 -101 0
-221 189 0
-221 169 0
221 153 20 101 -189 -169 0
-222 -142 0
-222 164 0
-222 -168 0
-222 149 0
-222 -74 0
222 142 -164 168 -149 74 0
-223 -143 0
-223 187 0
-223 92 0
-223 -16 0
-223 70 0
223 143 -187 -92 16 -70 0
-224 13 0
-224 64 0
-224 -159 0
-224 124 0
-224 -101 0
224 -13 -64 159 -124 101 0
-225 -178 0
-225 -171 0
-225 163 0
-225 111 0
-225 72 0
225 178 171 -163 -111 -72 0
221 222 223 224 225 0
-226 -125 0
-226 -108 0
-226 -64 0
-226 -155 0
-226 -14 0
226 125 108 64 155 14 0
-227 80 0
-227 -170 0
-227 142 0
-227 -131 0
-227 -32 0
227 -80 170 -142 131 32 0
-228 -35 0
-228 -56 0
-228 -34 0
-228 -76 0
-228 178 0
228 35 56 34 76 -178 0
-229 -43 0
-229 26 0
-229 8 0
-229 107 0
-229 -181 0
229 43 -26 -8 -107 181 0
-230 171 0
-230 -104 0
-230 -20 0
-230 -14 0
-230 151 0
230 -171 104 20 14 -151 0
226 227 228 229 230 0
-231 -57 0
-231 4 0
-231 29 0
-231 -117 0
-231 -42 0
231 57 -4 -29 117 42 0
-232 103 0
-232 -23 0
-232 -62 0
-232 98 0
-232 -17 0
232 -103 23 62 -98 17 0
-233 80 0
-233 174 0
-233 -92 0
-233 55 0
-233 -104 0
233 -80 -174 92 -55 104 0
-234 -10 0
-234 174 0
-234 -14 0
-234 -149 0
-234 -119 0
234 10 -174 14 149 119 0
-235 -70 0
-235 -112 0
-235 -130 0
-235 -153 0
-235 -34 0
235 70 112 130 153 34 0
231 232 233 234 235 0
-236 178 0
-236 -52 0
-236 -30 0
-236 113 0
-236 27 0
236 -178 52 30 -113 -27 0
-237 108 0
-237 -111 0
-237 -176 0
-237 -57 0
-237 -40 0
237 -108 111 176 57 40 0
-238 110 0
-238 170 0
-238 -139 0
-238 -72 0
-238 69 0
238 -110 -170 139 72 -69 0
-239 -70 0
-239 42 0
-239 -140 0
-239 -183 0
-239 -30 0
239 70 -42 140 183 30 0
-240 184 0
-240 -85 0
-240 20 0
-240 38 0
-240 33 0
240 -184 85 -20 -38 -33 0
236 237 238 239 240 0
-241 -115 0
-241 133 0
-241 -7 0
-241 16 0
-241 -88 0
241 115 -133 7 -16 88 0
-242 168 0
-242 66 0
-242 143 0
-242 130 0
-242 80 0
242 -168 -66 -143 -130 -80 0
-243 -17 0
-243 -190 0
-243 59 0
-243 24 0
-243 134 0
243 17 190 -59 -24 -134 0
-244 -28 0
-244 -21 0
-244 -143 0
-244 72 0
-244 156 0
244 28 21 143 -72 -156 0
-245 -22 0
-245 -30 0
-245 -190 0
-245 23 0
-245 -174 0
245 22 30 190 -23 174 0
241 242 243 244 245 0
-246 112 0
-246 177 0
-246 78 0
-246 -22 0
-246 58 0
246 -112 -177 -78 22 -58 0
-247 137 0
-247 94 0
-247 -80 0
-247 54 0
-247 61 0
247 -137 -94 80 -54 -61 0
-248 77 0
-248 1 0
-248 60 0
-248 -119 0
-248 173 0
248 -77 -1 -60 119 -173 0
-249 -67 0
-249 -72 0
-249 115 0
-249 -88 0
-249 -63 0
249 67 72 -115 88 63 0
-250 13 0
-250 -38 0
-250 10 0
-250 -148 0
-250 31 0
250 -13 38 -10 148 -31 0
246 247 248 249 250 0
-251 53 0
-251 173 0
-251 -157 0
-251 -74 0
-251 38 0
251 -53 -173 157 74 -38 0
-252 69 0
-252 165 0
-252 161 0
-252 135 0
-252 -100 0
252 -69 -165 -161 -135 100 0
-253 156 0
-253 -50 0
-253 41 0
-253 100 0
-253 -147 0
253 -156 50 -41 -100 147 0
-254 -91 0
-254 39 0
-254 -172 0
-254 6 0
-254 67 0
254 91 -39 172 -6 -67 0
-255 -18 0
-255 -127 0
-255 176 0
-255 112 0
-255 20 0
255 18 127 -176 -112 -20 0
251 252 253 254 255 0
-256 -64 0
-256 -139 0
-256 156 0
-256 101 0
-256 -178 0
256 64 139 -156 -101 178 0
-257 97 0
-257 81 0
-257 15 0
-257 -186 0
-257 -84 0
257 -97 -81 -15 186 84 0
-258 154 0
-258 155 0
-258 -143 0
-258 141 0
-258 108 0
258 -154 -155 143 -141 -108 0
-259 -125 0
-259 -51 0
-259 58 0
-259 -135 0
-259 -167 0
259 125 51 -58 135 167 0
-260 171 0
-260 -116 0
-260 -180 0
-260 -174 0
-260 -182 0
260 -171 116 180 174 182 0
256 257 258 259 260 0
-261 -89 0
-261 146 0
-261 154 0
-261 -115 0
-261 90 0
261 89 -146 -154 115 -90 0
-262 99 0
-262 20 0
-262 -31 0
-262 108 0
-262 102 0
262 -99 -20 31 -108 -102 0
-263 47 0
-263 -66 0
-263 93 0
-263 87 0
-263 77 0
263 -47 66 -93 -87 -77 0
-264 -114 0
-264 -58 0
-264 170 0
-264 22 0
-264 44 0
264 114 58 -170 -22 -44 0
-265 -139 0
-265 158 0
-265 -150 0
-265 16 0
-265 149 0
265 139 -158 150 -16 -149 0
261 262 263 264 265 0
-266 -78 0
-266 162 0
-266 -19 0
-266 -17 0
-266 130 0
266 78 -162 19 17 -130 0
-267 16 0
-267 176 0
-267 43 0
-267 -188 0
-267 134 0
267 -16 -176 -43 188 -134 0
-268 -88 0
-268 141 0
-268 -4 0
-268 56 0
-268 14 0
268 88 -141 4 -56 -14 0
-269 121 0
-269 -171 0
-269 135 0
-269 -101 0
-269 -76 0
269 -121 171 -135 101 76 0
-270 42 0
-270 8 0
-270 40 0
-270 -63 0
-270 69 0
270 -42 -8 -40 63 -69 0
266 267 268 269 270 0
-271 184 0
-271 -24 0
-271 -96 0
-271 -49 0
-271 -148 0
271 -184 24 96 49 148 0
-272 -28 0
-272 -175 0
-272 -140 0
-272 75 0
-272 15 0
272 28 175 140 -75 -15 0
-273 59 0
-273 -47 0
-273 142 0
-273 -108 0
-273 49 0
273 -59 47 -142 108 -49 0
-274 -12 0
-274 70 0
-274 165 0
-274 156 0
-274 38 0
274 12 -70 -165 -156 -38 0
-275 60 0
-275 -5 0
-275 77 0
-275 -11 0
-275 136 0
275 -60 5 -77 11 -136 0
271 272 273 274 275 0
-276 165 0
-276 -10 0
-276 32 0
-276 106 0
-276 -37 0
276 -165 10 -32 -106 37 0
-277 -88 0
-277 138 0
-277 -60 0
-277 66 0
-277 166 0
277 88 -138 60 -66 -166 0
-278 151 0
-278 175 0
-278 -142 0
-278 21 0
-278 16 0
278 -151 -175 142 -21 -16 0
-279 -156 0
-279 105 0
-279 46 0
-279 -167 0
-279 96 0
279 156 -105 -46 167 -96 0
-280 -128 0
-280 -11 0
-280 26 0
-280 120 0
-280 106 0
280 128 11 -26 -120 -106 0
276 277 278 279 280 0
-281 -166 0
-281 -85 0
-281 -112 0
-281 138 0
-281 182 0
281 166 85 112 -138 -182 0
-282 -48 0
-282 -23 0
-282 -6 0
-282 18 0
-282 -161 0
282 48 23 6 -18 161 0
-283 7 0
-283 88 0
-283 85 0
-283 -101 0
-283 -186 0
283 -7 -88 -85 101 186 0
-284 -173 0
-284 -79 0
-284 -182 0
-284 -127 0
-284 -145 0
284 173 79 182 127 145 0
-285 -138 0
-285 -16 0
-285 -103 0
-285 5 0
-285 161 0
285 138 16 103 -5 -161 0
281 282 283 284 285 0
-286 -60 0
-286 -95 0
-286 137 0
-286 9 0
-286 -125 0
286 60 95 -137 -9 125 0
-287 160 0
-287 71 0
-287 -172 0
-287 55 0
-287 -117 0
287 -160 -71 172 -55 117 0
-288 -7 0
-288 -149 0
-288 -152 0
-288 68 0
-288 128 0
288 7 149 152 -68 -128 0
-289 17 0
-289 115 0
-289 -66 0
-289 -85 0
-289 153 0
289 -17 -115 66 85 -153 0
-290 -125 0
-290 41 0
-290 190 0
-290 175 0
-290 -42 0
290 125 -41 -190 -175 42 0
286 287 288 289 290 0
-291 66 0
-291 189 0
-291 138 0
-291 126 0
-291 -29 0
291 -66 -189 -138 -126 29 0
-292 126 0
-292 -154 0
-292 -89 0
-292 32 0
-292 35 0
292 -126 154 89 -32 -35 0
-293 138 0
-293 143 0
-293 169 0
-293 -12 0
-293 171 0
293 -138 -143 -169 12 -171 0
-294 61 0
-294 156 0
-294 -140 0
-294 160 0
-294 78 0
294 -61 -156 140 -160 -78 0
-295 -55 0
-295 158 0
-295 -140 0
-295 -25 0
-295 160 0
295 55 -158 140 25 -160 0
291 292 293 294 295 0
-296 144 0
-296 126 0
-296 -54 0
-296 49 0
-296 -66 0
296 -144 -126 54 -49 66 0
-297 55 0
-297 -144 0
-297 -158 0
-297 -96 0
-297 133 0
297 -55 144 158 96 -133 0
-298 84 0
-298 60 0
-298 97 0
-298 -70 0
-298 169 0
298 -84 -60 -97 70 -169 0
-299 86 0
-299 31 0
-299 36 0
-299 -27 0
-299 -70 0
299 -86 -31 -36 27 70 0
-300 -76 0
-300 -167 0
-300 42 0
-300 -169 0
-300 3 0
300 76 167 -42 169 -3 0
296 297 298 299 300 0
-301 -108 0
-301 -114 0
-301 97 0
-301 -30 0
-301 -50 0
301 108 114 -97 30 50 0
-302 181 0
-302 142 0
-302 -152 0
-302 -42 0
-302 21 0
302 -181 -142 152 42 -21 0
-303 104 0
-303 64 0
-303 45 0
-303 34 0
-303 81 0
303 -104 -64 -45 -34 -81 0
-304 -174 0
-304 1 0
-304 -65 0
-304 -49 0
-304 -74 0
304 174 -1 65 49 74 0
-305 -178 0
-305 -128 0
-305 -74 0
-305 13 0
-305 56 0
305 178 128 74 -13 -56 0
301 302 303 304 305 0
-306 -156 0
-306 130 0
-306 -134 0
-306 40 0
-306 10 0
306 156 -130 134 -40 -10 0
-307 -29 0
-307 -80 0
-307 -169 0
-307 82 0
-307 -7 0
307 29 80 169 -82 7 0
-308 72 0
-308 -118 0
-308 -152 0
-308 -143 0
-308 112 0
308 -72 118 152 143 -112 0
-309 100 0
-309 -43 0
-309 -71 0
-309 183 0
-309 101 0
309 -100 43 71 -183 -101 0
-310 -25 0
-310 -24 0
-310 70 0
-310 -83 0
-310 -96 0
310 25 24 -70 83 96 0
306 307 308 309 310 0
-311 155 0
-311 132 0
-311 170 0
-311 21 0
-311 -183 0
311 -155 -132 -170 -21 183 0
-312 6 0
-312 75 0
-312 -179 0
-312 160 0
-312 165 0
312 -6 -75 179 -160 -165 0
-313 -80 0
-313 86 0
-313 38 0
-313 -174 0
-313 108 0
313 80 -86 -38 174 -108 0
-314 -155 0
-314 187 0
-314 180 0
-314 1 0
-314 72 0
314 155 -187 -180 -1 -72 0
-315 -25 0
-315 -7 0
-315 -43 0
-315 -163 0
-315 151 0
315 25 7 43 163 -151 0
311 312 313 314 315 0
-316 76 0
-316 -11 0
-316 34 0
-316 -136 0
-316 35 0
316 -76 11 -34 136 -35 0
-317 -99 0
-317 132 0
-317 62 0
-317 -2 0
-317 149 0
317 99 -132 -62 2 -149 0
-318 189 0
-318 -22 0
-318 -11 0
-318 -1 0
-318 -168 0
318 -189 22 11 1 168 0
-319 -13 0
-319 -14 0
-319 -96 0
-319 184 0
-319 -57 0
319 13 14 96 -184 57 0
-320 149 0
-320 -5 0
-320 100 0
-320 -26 0
-320 -62 0
320 -149 5 -100 26 62 0
316 317 318 319 320 0
-321 6 0
-321 113 0
-321 -14 0
-321 164 0
-321 19 0
321 -6 -113 14 -164 -19 0
-322 116 0
-322 -177 0
-322 157 0
-322 -81 0
-322 130 0
322 -116 177 -157 81 -130 0
-323 150 0
-323 50 0
-323 109 0
-323 20 0
-323 159 0
323 -150 -50 -109 -20 -159 0
-324 162 0
-324 -103 0
-324 143 0
-324 -152 0
-324 -114 0
324 -162 103 -143 152 114 0
-325 -123 0
-325 -122 0
-325 27 0
-325 -62 0
-325 -67 0
325 123 122 -27 62 67 0
321 322 323 324 325 0
-326 -145 0
-326 141 0
-326 97 0
-326 -131 0
-326 -147 0
326 145 -141 -97 131 147 0
-327 105 0
-327 -17 0
-327 -102 0
-327 64 0
-327 61 0
327 -105 17 102 -64 -61 0
-328 -151 0
-328 -35 0
-328 -145 0
-328 -94 0
-328 -149 0
328 151 35 145 94 149 0
-329 -32 0
-329 38 0
-329 21 0
-329 10 0
-329 -185 0
329 32 -38 -21 -10 185 0
-330 13 0
-330 12 0
-330 49 0
-330 -46 0
-330 -66 0
330 -13 -12 -49 46 66 0
326 327 328 329 330 0
-331 50 0
-331 142 0
-331 -110 0
-331 -33 0
-331 35 0
331 -50 -142 110 33 -35 0
-332 111 0
-332 110 0
-332 86 0
-332 -58 0
-332 -125 0
332 -111 -110 -86 58 125 0
-333 157 0
-333 -64 0
-333 140 0
-333 50 0
-333 -160 0
333 -157 64 -140 -50 160 0
-334 -130 0
-334 -159 0
-334 -83 0
-334 46 0
-334 87 0
334 130 159 83 -46 -87 0
-335 -169 0
-335 -3 0
-335 76 0
-335 105 0
-335 120 0
335 169 3 -76 -105 -120 0
331 332 333 334 335 0
-336 -43 0
-336 -19 0
-336 171 0
-336 14 0
-336 -3 0
336 43 19 -171 -14 3 0
-337 129 0
-337 166 0
-337 -142 0
-337 28 0
-337 -91 0
337 -129 -166 142 -28 91 0
-338 146 0
-338 42 0
-338 -30 0
-338 120 0
-338 183 0
338 -146 -42 30 -120 -183 0
-339 -137 0
-339 28 0
-339 23 0
-339 2 0
-339 42 0
339 137 -28 -23 -2 -42 0
-340 181 0
-340 -57 0
-340 11 0
-340 111 0
-340 -59 0
340 -181 57 -11 -111 59 0
336 337 338 339 340 0
-341 -152 0
-341 -172 0
-341 -45 0
-341 136 0
-341 -52 0
341 152 172 45 -136 52 0
-342 -44 0
-342 -57 0
-342 50 0
-342 -60 0
-342 -177 0
342 44 57 -50 60 177 0
-343 107 0
-343 -108 0
-343 -105 0
-343 -189 0
-343 -3 0
343 -107 108 105 189 3 0
-344 -108 0
-344 -164 0
-344 115 0
-344 -30 0
-344 55 0
344 108 164 -115 30 -55 0
-345 -184 0
-345 -22 0
-345 -180 0
-345 60 0
-345 153 0
345 184 22 180 -60 -153 0
341 342 343 344 345 0
-346 16 0
-346 21 0
-346 -45 0
-346 138 0
-346 142 0
346 -16 -21 45 -138 -142 0
-347 -58 0
-347 116 0
-347 19 0
-347 -123 0
-347 145 0
347 58 -116 -19 123 -145 0
-348 112 0
-348 -131 0
-348 -11 0
-348 62 0
-348 33 0
348 -112 131 11 -62 -33 0
-349 -30 0
-349 60 0
-349 -160 0
-349 59 0
-349 -26 0
349 30 -60 160 -59 26 0
-350 -180 0
-350 -43 0
-350 -107 0
-350 -95 0
-350 3 0
350 180 43 107 95 -3 0
346 347 348 349 350 0
-351 -52 0
-351 -5 0
-351 -12 0
-351 -27 0
-351 -130 0
351 52 5 12 27 130 0
-352 65 0
-352 -173 0
-352 -167 0
-352 -137 0
-352 131 0
352 -65 173 167 137 -131 0
-353 115 0
-353 10 0
-353 -153 0
-353 21 0
-353 66 0
353 -115 -10 153 -21 -66 0
-354 -13 0
-354 63 0
-354 21 0
-354 -19 0
-354 153 0
354 13 -63 -21 19 -153 0
-355 -118 0
-355 -124 0
-355 171 0
-355 -83 0
-355 89 0
355 118 124 -171 83 -89 0
351 352 353 354 355 0
-356 34 0
-356 24 0
-356 147 0
-356 -51 0
-356 -38 0
356 -34 -24 -147 51 38 0
-357 122 0
-357 64 0
-357 50 0
-357 -95 0
-357 30 0
357 -122 -64 -50 95 -30 0
-358 -84 0
-358 87 0
-358 135 0
-358 153 0
-358 -188 0
358 84 -87 -135 -153 188 0
-359 144 0
-359 36 0
-359 97 0
-359 171 0
-359 -126 0
359 -144 -36 -97 -171 126 0
-360 -1 0
-360 81 0
-360 -92 0
-360 -162 0
-360 -186 0
360 1 -81 92 162 186 0
356 357 358 359 360 0
-361 -49 0
-361 44 0
-361 -179 0
-361 -189 0
-361 -104 0
361 49 -44 179 189 104 0
-362 -48 0
-362 -66 0
-362 -83 0
-362 43 0
-362 -90 0
362 48 66 83 -43 90 0
-363 -29 0
-363 -168 0
-363 107 0
-363 -17 0
-363 -63 0
363 29 168 -107 17 63 0
-364 -69 0
-364 70 0
-364 -181 0
-364 -167 0
-364 43 0
364 69 -70 181 167 -43 0
-365 -40 0
-365 49 0
-365 85 0
-365 -157 0
-365 -59 0
365 40 -49 -85 157 59 0
361 362 363 364 365 0
-366 96 0
-366 -104 0
-366 -178 0
-366 101 0
-366 85 0
366 -96 104 178 -101 -85 0
-367 95 0
-367 47 0
-367 136 0
-367 71 0
-367 -24 0
367 -95 -47 -136 -71 24 0
-368 -66 0
-368 189 0
-368 105 0
-368 16 0
-368 -131 0
368 66 -189 -105 -16 131 0
-369 -139 0
-369 -112 0
-369 -8 0
-369 36 0
-369 -93 0
369 139 112 8 -36 93 0
-370 -115 0
-370 149 0
-370 -10 0
-370 135 0
-370 45 0
370 115 -149 10 -135 -45 0
366 367 368 369 370 0
-371 -14 0
-371 -65 0
-371 -67 0
-371 -166 0
-371 66 0
371 14 65 67 166 -66 0
-372 125 0
-372 -150 0
-372 168 0
-372 -46 0
-372 95 0
372 -125 150 -168 46 -95 0
-373 149 0
-373 -163 0
-373 -33 0
-373 158 0
-373 -137 0
373 -149 163 33 -158 137 0
-374 88 0
-374 -134 0
-374 -36 0
-374 50 0
-374 -110 0
374 -88 134 36 -50 110 0
-375 51 0
-375 -37 0
-375 -82 0
-375 -78 0
-375 -41 0
375 -51 37 82 78 41 0
371 372 373 374 375 0
-376 170 0
-376 28 0
-376 -63 0
-376 70 0
-376 -144 0
376 -170 -28 63 -70 144 0
-377 134 0
-377 26 0
-377 -8 0
-377 -102 0
-377 -167 0
377 -134 -26 8 102 167 0
-378 -139 0
-378 68 0
-378 37 0
-378 -172 0
-378 -41 0
378 139 -68 -37 172 41 0
-379 -68 0
-379 -21 0
-379 106 0
-379 124 0
-379 -51 0
379 68 21 -106 -124 51 0
-380 -169 0
-380 -102 0
-380 25 0
-380 141 0
-380 181 0
380 169 102 -25 -141 -181 0
376 377 378 379 380 0
-381 71 0
-381 -136 0
-381 -82 0
-381 35 0
-381 -64 0
381 -71 136 82 -35 64 0
-382 59 0
-382 116 0
-382 189 0
-382 -106 0
-382 184 0
382 -59 -116 -189 106 -184 0
-383 -184 0
-383 148 0
-383 42 0
-383 7 0
-383 -25 0
383 184 -148 -42 -7 25 0
-384 -2 0
-384 164 0
-384 139 0
-384 108 0
-384 56 0
384 2 -164 -139 -108 -56 0
-385 169 0
-385 116 0
-385 123 0
-385 38 0
-385 -147 0
385 -169 -116 -123 -38 147 0
381 382 383 384 385 0
-386 -37 0
-386 44 0
-386 18 0
-386 -164 0
-386 -136 0
386 37 -44 -18 164 136 0
-387 -138 0
-387 -190 0
-387 160 0
-387 38 0
-387 57 0
387 138 190 -160 -38 -57 0
-388 -24 0
-388 112 0
-388 -189 0
-388 -84 0
-388 137 0
388 24 -112 189 84 -137 0
-389 116 0
-389 132 0
-389 -134 0
-389 163 0
-389 -60 0
389 -116 -132 134 -163 60 0
-390 -129 0
-390 77 0
-390 141 0
-390 115 0
-390 -6 0
390 129 -77 -141 -115 6 0
386 387 388 389 390 0
-391 -6 0
-391 89 0
-391 -57 0
-391 -175 0
-391 20 0
391 6 -89 57 175 -20 0
-392 37 0
-392 170 0
-392 177 0
-392 103 0
-392 -183 0
392 -37 -170 -177 -103 183 0
-393 88 0
-393 93 0
-393 82 0
-393 -134 0
-393 -10 0
393 -88 -93 -82 134 10 0
-394 -159 0
-394 101 0
-394 -86 0
-394 184 0
-394 -125 0
394 159 -101 86 -184 125 0
-395 158 0
-395 10 0
-395 -137 0
-395 -156 0
-395 48 0
395 -158 -10 137 156 -48 0
391 392 393 394 395 0
-396 71 0
-396 160 0
-396 37 0
-396 -6 0
-396 -156 0
396 -71 -160 -37 6 156 0
-397 -105 0
-397 -15 0
-397 165 0
-397 -90 0
-397 166 0
397 105 15 -165 90 -166 0
-398 129 0
-398 -91 0
-398 -168 0
-398 -84 0
-398 -81 0
398 -129 91 168 84 81 0
-399 11 0
-399 -63 0
-399 171 0
-399 -119 0
-399 117 0
399 -11 63 -171 119 -117 0
-400 -56 0
-400 65 0
-400 97 0
-400 45 0
-400 117 0
400 56 -65 -97 -45 -117 0
396 397 398 399 400 0
-401 -39 0
-401 90 0
-401 -141 0
-401 169 0
-401 125 0
401 39 -90 141 -169 -125 0
-402 -153 0
-402 139 0
-402 73 0
-402 85 0
-402 32 0
402 153 -139 -73 -85 -32 0
-403 53 0
-403 162 0
-403 56 0
-403 25 0
-403 -60 0
403 -53 -162 -56 -25 60 0
-404 160 0
-404 -138 0
-404 -28 0
-404 15 0
-404 37 0
404 -160 138 28 -15 -37 0
-405 -80 0
-405 -62 0
-405 144 0
-405 -107 0
-405 66 0
405 80 62 -144 107 -66 0
401 402 403 404 405 0
-406 29 0
-406 -117 0
-406 -89 0
-406 38 0
-406 -5 0
406 -29 117 89 -38 5 0
-407 -1 0
-407 18 0
-407 -120 0
-407 -186 0
-407 -35 0
407 1 -18 120 186 35 0
-408 -81 0
-408 179 0
-408 -104 0
-408 -50 0
-408 -98 0
408 81 -179 104 50 98 0
-409 -110 0
-409 174 0
-409 -33 0
-409 184 0
-409 122 0
409 110 -174 33 -184 -122 0
-410 104 0
-410 -22 0
-410 -57 0
-410 108 0
-410 114 0
410 -104 22 57 -108 -114 0
406 407 408 409 410 0
-411 -15 0
-411 52 0
-411 92 0
-411 24 0
-411 60 0
411 15 -52 -92 -24 -60 0
-412 -29 0
-412 -11 0
-412 -43 0
-412 152 0
-412 117 0
412 29 11 43 -152 -117 0
-413 125 0
-413 -90 0
-413 -26 0
-413 -36 0
-413 57 0
413 -125 90 26 36 -57 0
-414 -156 0
-414 -89 0
-414 -13 0
-414 -168 0
-414 -136 0
414 156 89 13 168 136 0
-415 109 0
-415 -55 0
-415 135 0
-415 141 0
-415 50 0
415 -109 55 -135 -141 -50 0
411 412 413 414 415 0
-416 149 0
-416 -159 0
-416 79 0
-416 153 0
-416 85 0
416 -149 159 -79 -153 -85 0
-417 108 0
-417 -9 0
-417 -73 0
-417 -151 0
-417 -145 0
417 -108 9 73 151 145 0
-418 -184 0
-418 -155 0
-418 -101 0
-418 32 0
-418 140 0
418 184 155 101 -32 -140 0
-419 -104 0
-419 -164 0
-419 -180 0
-419 -24 0
-419 -155 0
419 104 164 180 24 155 0
-420 -176 0
-420 -155 0
-420 69 0
-420 46 0
-420 -2 0
420 176 155 -69 -46 2 0
416 417 418 419 420 0
-421 12 0
-421 106 0
-421 -133 0
-421 161 0
-421 -130 0
421 -12 -106 133 -161 130 0
-422 -118 0
-422 49 0
-422 -134 0
-422 50 0
-422 61 0
422 118 -49 134 -50 -61 0
-423 152 0
-423 29 0
-423 65 0
-423 187 0
-423 -141 0
423 -152 -29 -65 -187 141 0
-424 40 0
-424 137 0
-424 8 0
-424 4 0
-424 119 0
424 -40 -137 -8 -4 -119 0
-425 114 0
-425 -67 0
-425 -147 0
-425 38 0
-425 -75 0
425 -114 67 147 -38 75 0
421 422 423 424 425 0
-426 -93 0
-426 -57 0
-426 97 0
-426 -147 0
-426 14 0
426 93 57 -97 147 -14 0
-427 149 0
-427 -12 0
-427 -67 0
-427 70 0
-427 -117 0
427 -149 12 67 -70 117 0
-428 103 0
-428 149 0
-428 -179 0
-428 -72 0
-428 170 0
428 -103 -149 179 72 -170 0
-429 -16 0
-429 -145 0
-429 -99 0
-429 58 0
-429 -100 0
429 16 145 99 -58 100 0
-430 -21 0
-430 -152 0
-430 121 0
-430 -130 0
-430 -174 0
430 21 152 -121 130 174 0
426 427 428 429 430 0
